1 3 100 465370.21
1 3 200 469689.18
1 3 300 480582.25
2 3 100 469905.71
2 3 200 477086.04
2 3 300 471791.36
3 3 100 476814.73
3 3 200 481961.96
3 3 300 475691.74
4 3 100 469907.86
4 3 200 465001.92
4 3 300 471641.30
5 3 100 455949.01
5 3 200 455040.53
5 3 300 457379.34
